cases/pglib-opf/pglib_opf_case30_ieee.m
ipopt
ACP
[info | PowerModels]: removing 3 cost terms from generator 4: Float64[]
[info | PowerModels]: removing 1 cost terms from generator 1: [1842.1527999999998, 0.0]
[info | PowerModels]: removing 3 cost terms from generator 5: Float64[]
[info | PowerModels]: removing 1 cost terms from generator 2: [5218.2254, 0.0]
[info | PowerModels]: removing 3 cost terms from generator 6: Float64[]
[info | PowerModels]: removing 3 cost terms from generator 3: Float64[]

******************************************************************************
This program contains Ipopt, a library for large-scale nonlinear optimization.
 Ipopt is released as open source code under the Eclipse Public License (EPL).
         For more information visit http://projects.coin-or.org/Ipopt
******************************************************************************

This is Ipopt version 3.13.2, running with linear solver mumps.
NOTE: Other linear solvers might be more efficient (see Ipopt documentation).

Number of nonzeros in equality constraint Jacobian...:      995
Number of nonzeros in inequality constraint Jacobian.:      328
Number of nonzeros in Lagrangian Hessian.............:     1806

Total number of variables............................:      232
                     variables with only lower bounds:        0
                variables with lower and upper bounds:      202
                     variables with only upper bounds:        0
Total number of equality constraints.................:      225
Total number of inequality constraints...............:      164
        inequality constraints with only lower bounds:       41
   inequality constraints with lower and upper bounds:        0
        inequality constraints with only upper bounds:      123

iter    objective    inf_pr   inf_du lg(mu)  ||d||  lg(rg) alpha_du alpha_pr  ls
   0  6.6429132e+01 9.42e-01 1.81e+01  -1.0 0.00e+00    -  0.00e+00 0.00e+00   0
   1  7.3805974e+03 1.92e-01 1.37e+02  -1.0 1.73e+00    -  5.86e-03 7.96e-01H  1
   2  7.0362117e+03 7.70e-02 5.47e+01  -1.0 1.62e+00    -  2.07e-02 6.00e-01f  1
   3  7.0544217e+03 7.45e-02 5.34e+01  -1.0 7.99e-01    -  9.68e-01 3.19e-02h  1
   4  8.2288089e+03 5.15e-04 1.49e+00  -1.0 3.21e-01    -  1.00e+00 1.00e+00h  1
   5  8.2390073e+03 3.30e-05 1.34e-01  -1.0 2.16e-02    -  1.00e+00 1.00e+00h  1
   6  8.2178583e+03 7.40e-05 4.92e-01  -2.5 2.35e-02    -  8.48e-01 9.57e-01f  1
   7  8.2101534e+03 7.44e-05 6.45e+00  -2.5 4.92e-02    -  1.00e+00 7.43e-01f  1
   8  8.2093612e+03 5.58e-06 6.10e-02  -2.5 2.33e-02    -  1.00e+00 1.00e+00f  1
   9  8.2094471e+03 1.15e-07 8.09e-03  -2.5 1.99e-03    -  1.00e+00 1.00e+00h  1
iter    objective    inf_pr   inf_du lg(mu)  ||d||  lg(rg) alpha_du alpha_pr  ls
  10  8.2085399e+03 5.53e-06 8.46e-04  -3.8 8.62e-03    -  1.00e+00 1.00e+00f  1
  11  8.2085221e+03 8.56e-06 1.69e+01  -5.7 1.49e-03    -  8.58e-01 4.60e-01h  1
  12  8.2085142e+03 1.44e-06 1.47e-02  -5.7 1.50e-03    -  1.00e+00 1.00e+00h  1
  13  8.2085158e+03 5.61e-08 7.73e-05  -5.7 4.49e-04    -  1.00e+00 1.00e+00h  1
  14  8.2085159e+03 2.07e-09 5.33e-06  -5.7 2.37e-04    -  1.00e+00 1.00e+00h  1
  15  8.2085154e+03 5.29e-09 2.50e-03  -8.6 8.83e-05    -  9.80e-01 1.00e+00h  1
  16  8.2085154e+03 4.62e-09 2.33e-03  -8.6 1.11e-05    -  1.00e+00 1.25e-01f  4
  17  8.2085154e+03 3.62e-12 1.37e-08  -8.6 9.89e-06    -  1.00e+00 1.00e+00h  1
  18  8.2085154e+03 1.05e-14 2.54e-12  -9.0 4.10e-08    -  1.00e+00 1.00e+00h  1

Number of Iterations....: 18

                                   (scaled)                 (unscaled)
Objective...............:   1.5730473099043394e+02    8.2085154279444960e+03
Dual infeasibility......:   2.5377476026543745e-12    1.3242538998960166e-10
Constraint violation....:   1.0463852007092100e-14    1.0463852007092100e-14
Complementarity.........:   9.0917660609155749e-10    4.7442884589927603e-08
Overall NLP error.......:   9.0917660609155749e-10    4.7442884589927603e-08


Number of objective function evaluations             = 23
Number of objective gradient evaluations             = 19
Number of equality constraint evaluations            = 23
Number of inequality constraint evaluations          = 23
Number of equality constraint Jacobian evaluations   = 19
Number of inequality constraint Jacobian evaluations = 19
Number of Lagrangian Hessian evaluations             = 18
Total CPU secs in IPOPT (w/o function evaluations)   =      1.289
Total CPU secs in NLP function evaluations           =      2.291

EXIT: Optimal Solution Found.
Time to Solution........:4.32062292098999
